23 23
19
3 3 20 6
3 4 17 0
3 5 8 7
3 6 20 0
3 7 8 0
3 8 11 0
3 9 17 4
3 10 17 13
3 11 4 12
3 12 11 8
3 14 20 9
3 20 14 0
4 3 0 20
4 4 0 0
4 6 0 14
4 10 0 4
4 11 7 12
4 12 4 0
6 3 11 20
% time elapsed: 3.09 s
% time elapsed: 3.09 s
%%%mzn-stat: initTime=0.000349
%%%mzn-stat: solveTime=3.00178
%%%mzn-stat: solutions=56
%%%mzn-stat: variables=39
%%%mzn-stat: propagators=24
%%%mzn-stat: propagations=2164405
%%%mzn-stat: nodes=498508
%%%mzn-stat: failures=247818
%%%mzn-stat: restarts=125
%%%mzn-stat: peakDepth=65
%%%mzn-stat-end
